\ Model prob_11
\ LP format - for model browsing. Use MPS format to capture full model detail.
Minimize
  7 Chicken + 10 Pasta + 7 Rice + 9 Beans + 7 Cheese
Subject To
 R0: 5 Chicken + 3 Pasta + 11 Rice + 10 Beans + 4 Cheese >= 60
 R1: 13 Chicken + 23 Pasta + 27 Rice + 27 Beans + 18 Cheese >= 146
 R2: 121 Chicken + 274 Pasta + 251 Rice + 259 Beans + 199 Cheese >= 1727
Bounds
Generals
 Chicken Pasta Rice Beans Cheese
End
